35
1 0 10
2 0 14
2 1 73
3 0 53
3 1 67
3 2 78
4 0 3
4 1 39
4 2 100
4 3 73
5 0 47
5 1 2
5 2 89
5 3 2
5 4 52
6 0 39
6 1 22
6 2 49
6 3 15
6 4 5
6 5 2
7 0 28
7 1 100
7 2 28
7 3 4
7 4 63
7 5 28
7 6 97
8 0 91
8 1 63
8 2 26
8 3 48
8 4 80
8 5 89
8 6 67
8 7 13
9 0 23
9 1 33
9 2 60
9 3 19
9 4 40
9 5 55
9 6 52
9 7 31
9 8 29
10 0 51
10 1 60
10 2 93
10 3 14
10 4 45
10 5 44
10 6 99
10 7 42
10 8 22
10 9 93
11 0 5
11 1 17
11 2 61
11 3 77
11 4 67
11 5 27
11 6 20
11 7 85
11 8 57
11 9 28
11 10 87
12 0 75
12 1 96
12 2 61
12 3 3
12 4 73
12 5 6
12 6 37
12 7 10
12 8 15
12 9 78
12 10 12
12 11 98
13 0 27
13 1 87
13 2 23
13 3 39
13 4 66
13 5 27
13 6 74
13 7 30
13 8 82
13 9 29
13 10 93
13 11 95
13 12 70
14 0 88
14 1 86
14 2 17
14 3 23
14 4 19
14 5 60
14 6 86
14 7 4
14 8 10
14 9 13
14 10 2
14 11 94
14 12 50
14 13 83
15 0 54
15 1 89
15 2 40
15 3 22
15 4 69
15 5 57
15 6 21
15 7 37
15 8 15
15 9 71
15 10 83
15 11 3
15 12 78
15 13 73
15 14 24
16 0 55
16 1 63
16 2 51
16 3 83
16 4 94
16 5 90
16 6 31
16 7 72
16 8 92
16 9 75
16 10 94
16 11 64
16 12 52
16 13 21
16 14 2
16 15 25
17 0 71
17 1 69
17 2 75
17 3 95
17 4 23
17 5 67
17 6 47
17 7 54
17 8 38
17 9 70
17 10 14
17 11 23
17 12 60
17 13 72
17 14 35
17 15 99
17 16 5
18 0 34
18 1 49
18 2 17
18 3 47
18 4 67
18 5 28
18 6 74
18 7 12
18 8 69
18 9 84
18 10 88
18 11 57
18 12 40
18 13 73
18 14 54
18 15 57
18 16 17
18 17 92
19 0 21
19 1 27
19 2 94
19 3 55
19 4 16
19 5 61
19 6 41
19 7 85
19 8 76
19 9 64
19 10 22
19 11 66
19 12 66
19 13 96
19 14 67
19 15 37
19 16 5
19 17 66
19 18 74
20 0 30
20 1 10
20 2 45
20 3 25
20 4 78
20 5 42
20 6 80
20 7 47
20 8 42
20 9 18
20 10 30
20 11 55
20 12 38
20 13 5
20 14 61
20 15 58
20 16 68
20 17 30
20 18 66
20 19 11
21 0 70
21 1 64
21 2 90
21 3 46
21 4 56
21 5 55
21 6 93
21 7 21
21 8 6
21 9 36
21 10 74
21 11 56
21 12 10
21 13 15
21 14 24
21 15 57
21 16 11
21 17 38
21 18 8
21 19 48
21 20 71
22 0 75
22 1 72
22 2 52
22 3 62
22 4 62
22 5 31
22 6 94
22 7 64
22 8 20
22 9 98
22 10 28
22 11 17
22 12 15
22 13 32
22 14 96
22 15 55
22 16 31
22 17 39
22 18 78
22 19 25
22 20 82
22 21 51
23 0 93
23 1 68
23 2 85
23 3 50
23 4 53
23 5 13
23 6 50
23 7 35
23 8 92
23 9 14
23 10 73
23 11 28
23 12 3
23 13 20
23 14 51
23 15 87
23 16 79
23 17 81
23 18 34
23 19 56
23 20 22
23 21 6
23 22 80
24 0 72
24 1 67
24 2 38
24 3 5
24 4 22
24 5 52
24 6 9
24 7 18
24 8 8
24 9 13
24 10 95
24 11 96
24 12 61
24 13 90
24 14 78
24 15 33
24 16 21
24 17 76
24 18 82
24 19 69
24 20 72
24 21 47
24 22 51
24 23 93
25 0 90
25 1 47
25 2 79
25 3 54
25 4 58
25 5 20
25 6 10
25 7 49
25 8 42
25 9 15
25 10 68
25 11 57
25 12 40
25 13 9
25 14 84
25 15 36
25 16 47
25 17 9
25 18 38
25 19 16
25 20 95
25 21 46
25 22 25
25 23 39
25 24 63
26 0 69
26 1 9
26 2 43
26 3 68
26 4 80
26 5 35
26 6 79
26 7 76
26 8 4
26 9 8
26 10 13
26 11 5
26 12 60
26 13 62
26 14 63
26 15 94
26 16 75
26 17 66
26 18 46
26 19 67
26 20 79
26 21 52
26 22 59
26 23 32
26 24 54
26 25 67
27 0 23
27 1 59
27 2 24
27 3 68
27 4 31
27 5 58
27 6 23
27 7 19
27 8 12
27 9 40
27 10 73
27 11 62
27 12 93
27 13 25
27 14 45
27 15 75
27 16 15
27 17 49
27 18 8
27 19 22
27 20 35
27 21 60
27 22 71
27 23 74
27 24 26
27 25 18
27 26 77
28 0 58
28 1 61
28 2 48
28 3 18
28 4 39
28 5 22
28 6 91
28 7 57
28 8 78
28 9 99
28 10 67
28 11 90
28 12 88
28 13 47
28 14 35
28 15 84
28 16 99
28 17 26
28 18 21
28 19 68
28 20 5
28 21 42
28 22 57
28 23 74
28 24 40
28 25 61
28 26 23
28 27 36
29 0 22
29 1 65
29 2 14
29 3 11
29 4 54
29 5 76
29 6 71
29 7 82
29 8 67
29 9 56
29 10 29
29 11 34
29 12 52
29 13 74
29 14 84
29 15 39
29 16 16
29 17 90
29 18 90
29 19 78
29 20 51
29 21 88
29 22 24
29 23 91
29 24 11
29 25 78
29 26 77
29 27 25
29 28 23
30 0 38
30 1 79
30 2 27
30 3 92
30 4 58
30 5 50
30 6 6
30 7 67
30 8 20
30 9 35
30 10 55
30 11 80
30 12 27
30 13 72
30 14 8
30 15 74
30 16 49
30 17 100
30 18 67
30 19 83
30 20 68
30 21 100
30 22 42
30 23 31
30 24 28
30 25 31
30 26 68
30 27 59
30 28 22
30 29 5
31 0 6
31 1 4
31 2 81
31 3 6
31 4 39
31 5 84
31 6 42
31 7 59
31 8 12
31 9 62
31 10 5
31 11 92
31 12 88
31 13 94
31 14 7
31 15 52
31 16 15
31 17 88
31 18 88
31 19 68
31 20 22
31 21 26
31 22 9
31 23 77
31 24 96
31 25 23
31 26 48
31 27 43
31 28 1
31 29 30
31 30 99
32 0 47
32 1 48
32 2 100
32 3 34
32 4 25
32 5 23
32 6 83
32 7 15
32 8 77
32 9 26
32 10 9
32 11 51
32 12 84
32 13 92
32 14 75
32 15 57
32 16 94
32 17 90
32 18 55
32 19 46
32 20 71
32 21 12
32 22 95
32 23 57
32 24 22
32 25 14
32 26 50
32 27 18
32 28 32
32 29 61
32 30 90
32 31 83
33 0 89
33 1 91
33 2 84
33 3 91
33 4 69
33 5 99
33 6 23
33 7 46
33 8 9
33 9 2
33 10 48
33 11 7
33 12 3
33 13 50
33 14 4
33 15 41
33 16 85
33 17 79
33 18 26
33 19 83
33 20 85
33 21 23
33 22 24
33 23 88
33 24 87
33 25 37
33 26 36
33 27 93
33 28 5
33 29 1
33 30 54
33 31 8
33 32 61
34 0 96
34 1 50
34 2 8
34 3 50
34 4 74
34 5 54
34 6 97
34 7 97
34 8 72
34 9 56
34 10 62
34 11 62
34 12 38
34 13 46
34 14 42
34 15 37
34 16 61
34 17 2
34 18 80
34 19 46
34 20 35
34 21 95
34 22 27
34 23 43
34 24 90
34 25 75
34 26 26
34 27 68
34 28 71
34 29 50
34 30 84
34 31 100
34 32 60
34 33 74
